<number of tasks>
50

<cycle time>
1000

<order strength>
0.199


<task times>
1 412
2 377
3 292
4 308
5 429
6 411
7 512
8 445
9 458
10 689
11 684
12 411
13 339
14 395
15 412
16 512
17 321
18 510
19 574
20 629
21 651
22 524
23 481
24 519
25 502
26 467
27 565
28 662
29 414
30 586
31 269
32 504
33 421
34 479
35 557
36 517
37 438
38 559
39 477
40 541
41 462
42 933
43 558
44 380
45 497
46 362
47 479
48 531
49 683
50 535

<precedence relations>
3,12
3,13
4,10
6,41
8,11
9,43
10,15
10,16
11,14
11,17
11,18
14,37
15,21
16,19
17,20
18,29
18,48
19,23
19,25
20,26
20,28
20,31
21,22
21,24
21,27
21,29
21,30
22,34
23,38
23,44
23,49
26,32
26,33
26,34
27,32
27,37
28,35
28,39
28,44
31,36
31,47
33,41
33,42
34,40
34,45
36,43
37,44
38,45
40,49
42,50
43,46
44,47
45,48

<end>
